(set-logic ALL)
(declare-fun i1 () Int)
(declare-fun it178 () Int)
(declare-fun it179 () Int)
(declare-fun i2 () Int)
(declare-fun i3 () Int)
(declare-fun it180 () Int)
(declare-fun i4 () Int)
(declare-fun it181 () Int)
(declare-fun i5 () Int)
(declare-fun it182 () Int)
(declare-fun i6 () Int)
(declare-fun it183 () Int)
(declare-fun i7 () Int)
(declare-fun it184 () Int)
(declare-fun it261 () Int)
(declare-fun it262 () Int)
(declare-fun it263 () Int)
(declare-fun it264 () Int)
(declare-fun it265 () Int)
(declare-fun it266 () Int)
(declare-fun it267 () Int)
(declare-fun it277 () Int)
(declare-fun it278 () Int)
(declare-fun it279 () Int)
(declare-fun it280 () Int)
(declare-fun it281 () Int)
(declare-fun it282 () Int)
(declare-fun it283 () Int)
(declare-fun it291 () Int)
(declare-fun it292 () Int)
(declare-fun it293 () Int)
(declare-fun it294 () Int)
(declare-fun it295 () Int)
(declare-fun it296 () Int)
(declare-fun it297 () Int)
(declare-fun it152 () Int)
(assert (= (+ i1 (- 1)) 0))
(assert (= (+ it178 (- 2)) 0))
(assert (= (+ (* i2 (- 1)) it179 (- 1)) 0))
(assert (= (+ it180 (* i3 (- 1))) 0))
(assert (= (+ it181 (* i4 (- 1))) 0))
(assert (= (+ it182 (* i5 (- 1))) 0))
(assert (= (+ it183 (* i6 (- 1))) 0))
(assert (= (+ it184 (* i7 (- 1))) 0))
(assert (and (> it180 0)
     (<= (+ it183 (- 5)) 0)
     (<= (+ (* it183 (- 1)) (- 5)) 0)
     (= (+ it178 (- 2)) 0)))
(assert (= (+ it261 (- 3)) 0))
(assert (= (+ it262 (* it179 (- 1)) (- 2)) 0))
(assert (= (+ it263 (* it180 (- 1))) 0))
(assert (= (+ (* it180 (- 1)) it264) 0))
(assert (= (+ (* it184 (- 1)) it265) 0))
(assert (= (+ it266 (* it183 (- 1))) 0))
(assert (= (+ it267 (* it184 (- 1))) 0))
(assert (let ((a!1 (< (+ (exp it266 5) (+ 0 (* it265 (- 1))) (exp it264 2)) (+ 0 0))))
  (and (> it264 0) (= (+ it261 (- 3)) 0) a!1)))
(assert (= (+ it277 (- 3)) 0))
(assert (= (+ (* it262 (- 1)) it278 (- 1)) 0))
(assert (= (+ (* it263 (- 1)) it279) 0))
(assert (= (+ (* it264 2) it280) 0))
(assert (= (+ (* (exp it266 3) (+ 0 2)) (+ 0 (* it265 (- 3))) (+ 0 it281))
   (+ 0 0)))
(assert (= (+ (* it266 (- 1)) it282) 0))
(assert (= (+ (* it267 (- 1)) it283) 0))
(assert (let ((a!1 (< (+ (exp it282 5) (exp it280 2) (+ 0 (* it281 (- 1)))) (+ 0 0))))
  (and (= (+ it277 (- 3)) 0) a!1 (< it280 0))))
(assert (= (+ it291 (- 3)) 0))
(assert (= (+ it292 (* it278 (- 1)) (- 1)) 0))
(assert (= (+ (* it279 (- 1)) it293) 0))
(assert (= (+ it294 (* it280 2)) 0))
(assert (= (+ (+ 0 it295) (* (exp it282 3) (+ 0 2)) (+ 0 (* it281 (- 3))))
   (+ 0 0)))
(assert (= (+ (* it282 (- 1)) it296) 0))
(assert (= (+ (* it283 (- 1)) it297) 0))
(assert (let ((a!1 (> (+ (+ 0 it295)
                 (* (exp it296 5) (+ 0 (- 1)))
                 (* (exp it294 2) (+ 0 (- 1))))
              (+ 0 0)))
      (a!2 (* (exp (exp 4 (+ it152 (- 1))) (+ 0 2)) (exp it294 2)))
      (a!3 (* (* (exp 9 (+ it152 (- 1))) (exp it296 3)) (+ 0 (- 3))))
      (a!4 (* (* (+ 0 it295) (exp 9 (+ it152 (- 1)))) (+ 0 3)))
      (a!6 (> (+ (+ 0 (* it295 3))
                 (* (exp it296 5) (+ 0 (- 1)))
                 (* (exp it296 3) (+ 0 (- 2)))
                 (* (exp it294 2) (+ 0 (- 4))))
              (+ 0 0)))
      (a!7 (* (* (exp 9 (+ it152 (- 1))) (exp it296 3)) (+ 0 (- 1)))))
(let ((a!5 (> (+ (* a!2 (+ 0 (- 4)))
                 (* (exp it296 5) (+ 0 (- 1)))
                 (exp it296 3)
                 a!3
                 a!4)
              (+ 0 0)))
      (a!8 (+ (* a!2 (+ 0 (- 1)))
              (* (exp it296 5) (+ 0 (- 1)))
              (exp it296 3)
              a!7
              (* (+ 0 it295) (exp 9 (+ it152 (- 1)))))))
  (and a!1
       (>= (+ it152 (- 1)) 0)
       (> (* it294 (- 1)) 0)
       (> (* it294 (- 2)) 0)
       a!5
       (>= (+ (* it291 (- 1)) 3) 0)
       a!6
       (>= (+ it291 (- 3)) 0)
       (> a!8 (+ 0 0))))))
(check-sat)
